Results/Experiment 1 Results/New Benchmark/RES_60/output_p1_0.00_p2_0.00_n_60_08.txt
solutions: 373248 nodes: 678154  modelTime: 119  solveTime: 2447  totalTime: 2575  modelSize: 7853  readTime: 9 matchingSize: 30
